
Gurobi 10.0.3 (linux64, gurobi_cl) logging started Thu Nov  2 11:34:09 2023

Set parameter Username
Set parameter TimeLimit to value 3600
Set parameter LogFile to value "RCPSP_448.log"
Set parameter Threads to value 32
Academic license - for non-commercial use only - expires 2024-10-30
Using license file /home/jrivera6/gurobi-licenses/v1003/compute-0-39/gurobi.lic

Gurobi Optimizer version 10.0.3 build v10.0.3rc0 (linux64)
Copyright (c) 2023, Gurobi Optimization, LLC

Read MPS format model from file RCPSP_448.mps
Reading time = 0.01 seconds
RCPSP_448: 5349 rows, 2080 columns, 18893 nonzeros

CPU model: Intel(R) Xeon(R) Gold 6242 CPU @ 2.80GHz, instruction set [SSE2|AVX|AVX2|AVX512]
Thread count: 32 physical cores, 32 logical processors, using up to 32 threads

Optimize a model with 5349 rows, 2080 columns and 18893 nonzeros
Model fingerprint: 0x520bd3b5
Variable types: 32 continuous, 2048 integer (2048 binary)
Coefficient statistics:
  Matrix range     [1e+00, 1e+02]
  Objective range  [1e+00, 1e+00]
  Bounds range     [1e+00, 1e+00]
  RHS range        [1e+00, 2e+02]
Presolve removed 4036 rows and 1612 columns
Presolve time: 0.10s
Presolved: 1313 rows, 468 columns, 4054 nonzeros
Variable types: 31 continuous, 437 integer (437 binary)

Root relaxation: objective 6.600000e+01, 186 iterations, 0.00 seconds (0.00 work units)

    Nodes    |    Current Node    |     Objective Bounds      |     Work
 Expl Unexpl |  Obj  Depth IntInf | Incumbent    BestBd   Gap | It/Node Time

     0     0   66.00000    0   14          -   66.00000      -     -    0s
     0     0   66.00000    0   59          -   66.00000      -     -    0s
     0     0   66.00000    0   59          -   66.00000      -     -    0s
H    0     0                     114.0000000   67.34177  40.9%     -    0s
     0     0   67.34177    0   50  114.00000   67.34177  40.9%     -    0s
H    0     0                     112.0000000   67.34177  39.9%     -    0s
H    0     0                     104.0000000   67.34177  35.2%     -    0s
     0     0   70.39642    0   44  104.00000   70.39642  32.3%     -    0s
     0     0   70.39642    0   44  104.00000   70.39642  32.3%     -    0s
     0     0   70.42136    0   83  104.00000   70.42136  32.3%     -    0s
     0     0   70.44787    0   78  104.00000   70.44787  32.3%     -    0s
     0     0   70.44787    0   79  104.00000   70.44787  32.3%     -    0s
     0     0   70.91187    0   63  104.00000   70.91187  31.8%     -    0s
     0     0   70.91349    0   85  104.00000   70.91349  31.8%     -    0s
     0     0   70.94217    0   81  104.00000   70.94217  31.8%     -    0s
     0     0   71.41075    0   76  104.00000   71.41075  31.3%     -    0s
     0     0   71.47844    0   76  104.00000   71.47844  31.3%     -    0s
     0     0   72.31612    0   77  104.00000   72.31612  30.5%     -    0s
H    0     0                     101.0000000   72.31612  28.4%     -    1s
     0     0   72.33150    0   71  101.00000   72.33150  28.4%     -    1s
     0     0   72.33150    0   61  101.00000   72.33150  28.4%     -    1s
     0     0   72.46566    0   88  101.00000   72.46566  28.3%     -    1s
     0     0   72.55600    0   80  101.00000   72.55600  28.2%     -    1s
     0     0   72.56817    0   78  101.00000   72.56817  28.2%     -    1s
     0     0   72.56817    0   76  101.00000   72.56817  28.2%     -    1s
     0     0   72.73580    0   69  101.00000   72.73580  28.0%     -    1s
     0     0   72.74044    0   71  101.00000   72.74044  28.0%     -    1s
     0     0   72.74044    0   74  101.00000   72.74044  28.0%     -    1s
     0     0   72.74044    0   77  101.00000   72.74044  28.0%     -    1s
     0     0   72.75045    0   80  101.00000   72.75045  28.0%     -    1s
     0     0   72.83846    0   58  101.00000   72.83846  27.9%     -    1s
     0     0   72.83846    0   69  101.00000   72.83846  27.9%     -    1s
     0     0   73.26074    0   75  101.00000   73.26074  27.5%     -    1s
     0     0   73.60151    0   69  101.00000   73.60151  27.1%     -    1s
     0     0   73.60151    0   65  101.00000   73.60151  27.1%     -    1s
     0     0   74.30860    0   71  101.00000   74.30860  26.4%     -    1s
H    0     0                     100.0000000   74.30860  25.7%     -    1s
     0     0   74.32019    0   64  100.00000   74.32019  25.7%     -    1s
     0     0   74.33251    0   57  100.00000   74.33251  25.7%     -    1s
     0     0   74.33251    0   63  100.00000   74.33251  25.7%     -    1s
     0     0   74.38238    0   85  100.00000   74.38238  25.6%     -    1s
     0     0   74.38238    0   84  100.00000   74.38238  25.6%     -    1s
     0     0   74.39511    0   88  100.00000   74.39511  25.6%     -    1s
     0     0   74.39511    0   70  100.00000   74.39511  25.6%     -    1s
     0     0   74.39511    0   80  100.00000   74.39511  25.6%     -    1s
     0     0   74.39511    0   39  100.00000   74.39511  25.6%     -    2s
H    0     0                      99.0000000   74.39511  24.9%     -    2s
     0     2   74.39511    0   26   99.00000   74.39511  24.9%     -    2s
    84   113   77.02968    7   41   99.00000   77.02968  22.2%  82.6    5s
H   94   113                      98.0000000   77.02968  21.4%  77.8    5s
H   97   113                      97.0000000   77.02968  20.6%  77.4    5s
H 1347   979                      97.0000000   77.02968  20.6%  17.6    7s
H 1425   994                      96.0000000   77.02968  19.8%  17.1   11s
H 1467   994                      95.0000000   77.02968  18.9%  17.0   11s
* 3177  1999              26      95.0000000   78.20573  17.7%  14.3   13s
  5309  2695   86.69775   13   46   95.00000   79.91187  15.9%  13.5   15s
  8934  3409   92.00000   22   39   95.00000   81.91580  13.8%  13.3   23s
  8936  3410   81.91580   14   20   95.00000   81.91580  13.8%  13.3   26s
  8941  3414   85.82450   14   42   95.00000   81.91580  13.8%  13.3   30s
  8979  3448   82.00000   18   49   95.00000   82.00000  13.7%  14.5   35s
  9147  3494   83.85343   22   52   95.00000   82.00000  13.7%  15.2   50s
  9362  3505   85.06452   25   46   95.00000   82.00000  13.7%  15.5   55s
* 9917  3371              47      94.0000000   82.00000  12.8%  15.8   57s
 10474  3255   90.00000   22   38   94.00000   82.00000  12.8%  16.1   60s
 12108  2826   90.00000   26   36   94.00000   84.00000  10.6%  17.3   65s
 15128  2077   91.00000   37   25   94.00000   88.00000  6.38%  17.2   70s
 18052   936   90.00000   26   54   94.00000   89.60043  4.68%  17.0   75s
 21816   102   93.33333   32   37   94.00000   92.00000  2.13%  16.5   80s

Cutting planes:
  Learned: 7
  Gomory: 42
  Cover: 24
  Implied bound: 31
  Projected implied bound: 5
  Clique: 1
  MIR: 148
  StrongCG: 8
  Flow cover: 290
  Inf proof: 21
  Zero half: 1
  RLT: 63
  Relax-and-lift: 55

Explored 22579 nodes (373835 simplex iterations) in 82.20 seconds (3.66 work units)
Thread count was 32 (of 32 available processors)

Solution count 10: 94 95 95 ... 101

Optimal solution found (tolerance 1.00e-04)
Best objective 9.400000000000e+01, best bound 9.400000000000e+01, gap 0.0000%

Wrote result file 'RCPSP_448.sol'

